c
c start with comments
c
p cnf 31 25
-4 16 -11 -4 -10 0
8 14 -10 0
-13 -13 -20 0
30 7 30 0
23 -29 -9 -30 0
-9 6 -32 0
19 -6 10 0
-28 -7 -7 0
1 -3 0
20 -31 26 0
-19 3 13 0
-16 -32 22 -12 -10 -12 0
12 -5 12 0
-17 -15 0
27 17 0
-22 28 2 19 0
25 21 4 -10 0
-19 29 2 0
-2 28 -16 0
11 31 0
5 32 0
8 -31 28 0
21 16 23 0
-14 24 0
8 -26 21 4 -30 0